c generated scheduling residual graph
p max 31 132
n 1 s
n 31 t
a 1 2 2
a 2 1 4
a 1 3 3
a 3 1 2
a 1 4 1
a 4 1 5
a 1 5 2
a 6 1 6
a 7 1 4
a 8 1 6
a 1 9 2
a 9 1 4
a 10 1 6
a 1 11 1
a 11 1 5
a 2 13 1
a 2 14 1
a 2 15 1
a 2 16 3
a 2 17 7
a 2 18 4
a 19 2 4
a 3 21 1
a 3 22 5
a 3 23 11
a 3 24 2
a 3 25 2
a 3 26 4
a 3 27 8
a 3 28 1
a 29 3 2
a 3 30 1
a 4 12 1
a 4 13 1
a 4 14 1
a 4 15 1
a 4 16 3
a 4 17 7
a 4 18 4
a 4 19 4
a 4 20 1
a 4 21 1
a 4 22 4
a 22 4 1
a 4 23 7
a 23 4 4
a 4 24 2
a 5 22 5
a 5 23 11
a 5 24 2
a 5 25 2
a 5 26 4
a 6 23 5
a 23 6 6
a 6 24 2
a 6 25 2
a 6 26 4
a 6 27 8
a 6 28 1
a 7 18 4
a 7 19 4
a 7 20 1
a 7 21 1
a 7 22 1
a 22 7 4
a 7 23 11
a 21 8 1
a 8 22 5
a 8 23 10
a 23 8 1
a 8 24 2
a 8 25 2
a 8 26 4
a 8 27 4
a 27 8 4
a 9 15 1
a 9 16 3
a 9 17 7
a 9 18 4
a 9 19 4
a 9 20 1
a 9 21 1
a 9 22 5
a 9 23 11
a 9 24 2
a 9 25 2
a 9 26 4
a 9 27 4
a 27 9 4
a 9 28 1
a 9 29 2
a 10 14 1
a 10 15 1
a 10 16 3
a 10 17 7
a 10 18 4
a 10 19 4
a 10 20 1
a 10 21 1
a 10 22 5
a 10 23 11
a 10 24 2
a 10 25 2
a 26 10 4
a 10 27 8
a 28 10 1
a 10 29 2
a 30 10 1
a 11 17 7
a 11 18 4
a 11 19 4
a 20 11 1
a 11 21 1
a 11 22 5
a 11 23 11
a 24 11 2
a 25 11 2
a 16 31 3
a 17 31 7
a 18 31 4
a 31 19 4
a 31 20 1
a 31 21 1
a 31 22 5
a 31 23 11
a 31 24 2
a 31 25 2
a 31 26 4
a 31 27 8
a 31 28 1
a 31 29 2
a 31 30 1
